/* 13 */

/* Objective function */
min: +C3;

/* Constraints */
+1.5 C1 +2.4 C2 -C3 <= -0.09;
+3.5 C1 +2.67 C2 -C3 <= -0.09;
-4166666666.7 C2 -C3 <= -0.09;
-6666666670.57 C1 +2.4 C2 -C3 <= -0.09;
R5: -C3 <= -0.09;
R6: -C3 <= -0.09;
R7: -C3 <= -0.09;
R8: -C3 <= -0.09;
R9: -C3 <= -0.09;
R10: -C3 <= -0.09;
R11: -C3 <= -0.09;
R12: -C3 <= -0.09;
R13: -C3 <= -0.09;
R14: -C3 <= -0.09;
R15: -C3 <= -0.09;

/* Variable bounds */
C1 >= -10000000000;
C2 >= -10000000000;
C3 >= -10000000000;
